Route #1: 1 55 36 41 30 5 17 28 25 49 50 6 1
Route #2: 1 38 40 15 23 43 3 53 51 8 1
Route #3: 1 29 26 13 54 37 39 18 35 20 52 1
Route #4: 1 11 32 12 16 46 1
Route #5: 1 56 2 47 24 14 34 22 45 4 1
Route #6: 1 57 19 27 42 10 9 1
Route #7: 1 31 44 21 48 33 1
cost 1241.3926761168989
